TITLE FEFF Calculation - Atome absorbeur : Rh
DEBYE 190.0 315.0 0
EDGE K
SCF 5.0
RPATH 5.0
CONTROL	1 1 1 1 1 1

POTENTIALS
    0    45      Rh
    1    77      Ir
    2    45      Rh

ATOMS
   0.000000   0.000000   0.000000    0    Rh   0.0000 (Absorbeur)
   6.860000   4.900000   4.900000    1    Ir   9.7509
   5.880000   5.880000   1.960000    2    Rh   8.5434
   6.860000   2.940000   0.980000    2    Rh   7.5275
   5.880000   0.000000   1.960000    2    Rh   6.1981
   2.940000   0.980000   0.980000    2    Rh   3.2503
   0.000000   0.000000   1.960000    1    Ir   1.9600
  -0.980000  -0.980000   0.980000    1    Ir   1.6974
   0.980000  -0.980000   0.980000    2    Rh   1.6974
  -0.980000   0.980000   0.980000    1    Ir   1.6974
   2.940000  -0.980000  -0.980000    1    Ir   3.2503
   2.940000   0.980000   0.980000    1    Ir   3.2503
  -0.980000   2.940000  -0.980000    1    Ir   3.2503
   0.980000   2.940000   0.980000    1    Ir   3.2503
  -0.980000  -0.980000   2.940000    2    Rh   3.2503
   0.980000   0.980000   2.940000    2    Rh   3.2503
END
